c --- [ banner ] -------------------------------------------------------------
c 
c CaDiCaL SAT Solver
c Copyright (c) 2016-2025
c A. Biere, M. Fleury, N. Froleyks, K. Fazekas, F. Pollitt, T. Faller
c JKU Linz, University of Freiburg, TU Wien
c 
c Version 3.0.0 7b99c07f0bcab5824a5a3ce62c7066554017f641
c Apple clang version 21.0.0 (clang-2100.0.123.102) -Wall -Wextra -O3 -DNDEBUG -DNCLOSEFROM
c Thu Apr 23 22:35:47 PDT 2026 Darwin dada-mun-26.local 25.4.0 arm64
c 
c --- [ limit ] --------------------------------------------------------------
c 
c setting time limit to 5 seconds real time (due to '-t 5')
c 
c --- [ parsing input ] ------------------------------------------------------
c 
c reading DIMACS file from '/private/tmp/p97-ordinal-continuationOrder.cnf'
c opening file to read '/private/tmp/p97-ordinal-continuationOrder.cnf'
c found 'p cnf 57561 310686' header
c parsed 310686 clauses in 0.05 seconds process time
c 
c --- [ options ] ------------------------------------------------------------
c 
c   --compact=false                (different from default 'true')
c   --congruence=false             (different from default 'true')
c   --decompose=false              (different from default 'true')
c   --deduplicate=false            (different from default 'true')
c   --eagersubsume=false           (different from default 'true')
c   --elim=false                   (different from default 'true')
c   --factor=false                 (different from default 'true')
c   --factorunbump=false           (different from default 'true')
c   --fastelim=false               (different from default 'true')
c   --inprobing=false              (different from default 'true')
c   --inprocessing=false           (different from default 'true')
c   --preprocesslight=false        (different from default 'true')
c   --probe=false                  (different from default 'true')
c   --subsume=false                (different from default 'true')
c   --sweep=false                  (different from default 'true')
c   --ternary=false                (different from default 'true')
c   --transred=false               (different from default 'true')
c   --vivify=false                 (different from default 'true')
c 
c --- [ solving ] ------------------------------------------------------------
c 
c time measured in process time since initialization
c 
c  seconds  reduction conflicts       size tier2        variables
c         MB    restarts   redundant    glue  trail          remaining
c          level     rate       size/glu tier1  irredundant
c 
c *  0.05  0  0 0   0  0    0    0 0.0 0 0 2 6  0% 309894 56921 99%
c )  0.05  0  0 0   0  0    0    0 0.0 0 0 2 6  0% 309894 56921 99%
c {  0.05  0  0 0   0  0    0    0 0.0 0 0 2 6  0% 309894 56921 99%
c i  0.05  0  7 0   0  3    5    3 2.3 2 1 2 6  1% 309894 56701 99%
c i  0.05  0 10 0   0  3   11    8 2.1 2 1 2 6  2% 309894 56579 98%
c i  0.05  0 63 0   0  6   59   53 1.8 2 1 2 6  6% 309894 56578 98%
c i  0.06  0 137 0  15 26  129  109 1.4 4 3 2 6  8% 309894 56566 98%
c i  0.06  0 135 0  16 26  131  110 1.4 4 3 2 6  8% 309894 56563 98%
c -  0.09  0 465 1  52 187  300  207 1.6 7 4 2 6 14% 305570 56562 98%
c -  0.18  0 230 2 156 76  944  612 1.6 8 5 2 6 20% 305570 56562 98%
c }  0.19  0 224 2 169 74 1002  660 1.6 8 5 2 6 20% 305570 56562 98%
c [  0.19  0  0 2 169  0 1002  660 0.0 0 0 2 6  0% 305570 56562 98%
c O  0.19  0 28 2 169 29 1003  661 1.1 15 14 2 6  5% 305570 56562 98%
c i  0.19  0 34 2 169  3 1048  696 1.3 11 9 2 6  6% 305570 56561 98%
c ]  0.27  0 64 2 169  2 1421 1063 4.0 46 11 2 6 27% 305570 56561 98%
c {  0.27  0 224 2 169 74 1421 1063 1.6 8 5 2 6 20% 305570 56561 98%
c i  0.28  0 214 2 182 69 1522 1157 1.6 9 5 2 6 20% 305570 56560 98%
c i  0.29  0 197 2 197 59 1748 1345 1.6 9 5 2 6 20% 305570 56553 98%
c -  0.32  0 175 3 239 50 2087 1174 1.6 9 6 2 6 19% 305523 56553 98%
c i  0.36  0 161 3 319 43 2639 1644 1.7 10 6 2 6 20% 305523 56548 98%
c 
c  seconds   reduction conflicts       size  tier2        variables
c         MB     restarts   redundant     glue  trail          remaining
c           level     rate       size/glue tier1  irredundant
c 
c O  0.39  0 155 3 351 39 3005 1965 1.7 10 6 2 6 20% 305523 56543 98%
c -  0.47  0 147 4 435 34 3783 1970 1.7 10 6 2 6 22% 305470 56543 98%
c #  0.59  0 139 4 553 24 6008 3779 1.7 10 6 2 3 24% 305470 56543 98%
c -  0.61  0 139 5 560 24 6067 2504 1.7 10 6 2 3 24% 305470 56543 98%
c }  0.70  0 136 5 621 21 7388 3582 1.8 10 6 2 3 25% 305470 56543 98%
c [  0.70  0 64 5 621  2 7388 3582 4.0 46 11 2 6 27% 305470 56543 98%
c i  0.74  0 102 5 622  3 8113 4255 3.1 27 9 2 6 33% 305470 56536 98%
c -  0.80  0 92 6 622  3 8959 3442 2.7 26 9 2 6 31% 305429 56536 98%
c i  0.83  0 87 6 623  3 9370 3791 2.7 24 9 3 8 29% 305429 56533 98%
c I  0.87  0 85 6 623  3 10010 4382 2.6 24 9 3 8 30% 305429 56533 98%
c i  0.97  0 84 6 624  3 12180 6373 2.3 23 10 3 8 28% 305429 56532 98%
c -  1.01  0 84 7 624  3 12472 4354 2.3 23 10 3 8 28% 305410 56532 98%
c B  1.17  0 84 7 626  3 15015 6714 2.3 23 10 3 8 29% 305410 56532 98%
c ]  1.18  0 84 7 626  3 15062 6759 2.3 23 10 3 8 29% 305410 56532 98%
c {  1.18  0 136 7 626 21 15062 6759 1.8 10 6 2 3 25% 305410 56532 98%
c -  1.26  0 130 8 716 19 16618 5444 1.8 10 6 2 3 24% 305410 56532 98%
c i  1.31  0 129 8 778 19 17328 6049 1.8 10 6 2 3 24% 305410 56531 98%
c i  1.33  0 128 8 793 18 17764 6409 1.8 10 6 2 3 24% 305410 56530 98%
c i  1.42  0 124 8 860 16 19443 7852 1.8 10 6 2 3 24% 305410 56525 98%
c B  1.53  0 122 8 1011 16 21016 9200 1.8 10 6 2 3 24% 305410 56525 98%
c 
c  seconds   reductions  conflicts       size  tier2        variables
c         MB     restarts     redundant     glue  trail          remaining
c           level      rate        size/glue tier1  irredundant
c 
c -  1.56  0 120 9 1028 16 21402 7044 1.8 10 6 2 3 24% 305371 56525 98%
c -  1.91  0 116 10 1379 14 26832 8904 1.8 10 6 2 3 24% 305371 56525 98%
c W  2.08  0 115 10 1457 14 28017 9939 1.9 11 6 2 3 24% 305371 56525 98%
c }  2.20  0 115 10 1583 14 29476 11234 1.9 11 6 2 3 24% 305371 56525 98%
c [  2.20  0 84 10 1583  3 29476 11234 2.3 23 10 3 8 29% 305371 56525 98%
c -  2.47  0 80 11 1584  3 32914 10606 2.3 25 11 3 8 31% 305371 56525 98%
c W  2.76  0 75 11 1586  3 36018 13588 2.3 28 12 3 8 31% 305371 56525 98%
c -  3.02  0 72 12 1588  3 39647 11557 2.2 29 13 3 8 30% 305371 56525 98%
c ]  3.24  0 67 12 1590  3 42602 14408 2.2 29 13 3 8 28% 305371 56525 98%
c {  3.24  0 115 12 1590 14 42602 14408 1.9 11 6 2 3 24% 305371 56525 98%
c i  3.25  0 114 12 1599 14 42665 14469 1.9 11 6 2 3 24% 305371 56523 98%
c F  3.44  0 114 12 1825 14 45021 16528 1.9 11 6 2 3 24% 305371 56522 98%
c -  3.62  0 113 13 2032 14 47036 13080 1.9 11 6 2 3 24% 305358 56522 98%
c B  4.27  0 110 13 2794 13 55023 20205 1.9 11 6 2 3 24% 305358 56522 98%
c -  4.29  0 110 14 2800 13 55085 15538 1.9 11 6 2 3 24% 305358 56522 98%
c }  4.89  0 109 14 3493 14 61851 21612 1.9 11 6 2 3 25% 305358 56522 98%
c [  4.89  0 67 14 3493  3 61851 21612 2.2 29 13 3 8 28% 305358 56522 98%
c ]  5.01  0 70 14 3494  3 63622 23337 2.2 30 13 3 8 29% 305358 56522 98%
c ?  5.01  0 70 14 3494  3 63622 23337 2.2 30 13 3 8 29% 305358 56522 98%
c 
c --- [ result ] -------------------------------------------------------------
c 
c writing result to '/private/tmp/p97-ordinal-continuationOrder-smoke.sol'
c 
c --- [ run-time profiling ] -------------------------------------------------
c 
c process time taken by individual solving procedures
c (percentage relative to process time for solving)
c 
c         4.96  100.00% search
c         3.14   63.37% unstable
c         1.68   33.87% stable
c         0.14    2.74% walk
c         0.05    1.02% parse
c         0.00    0.02% lucky
c         0.00    0.00% simplify
c   =================================
c         4.96   98.99% solve
c 
c last line shows process time for solving
c (percentage relative to total process time)
c 
c --- [ statistics ] ---------------------------------------------------------
c 
c chronological:             33291        52.33 %  of conflicts
c conflicts:                 63622     12828.96    per second
c decisions:                607922    122583.53    per second
c fixed:                      1039         1.81 %  of all variables
c learned:                   57199        89.90 %  per conflict
c learned_lits:            1189287       100.00 %  learned literals
c minimized:                     0         0.00 %  learned literals
c shrunken:                  73325         6.17 %  learned literals
c minishrunken:              81861         6.88 %  learned literals
c otfs:                       3614         5.68 %  of conflict
c propagations:          112328602        22.65 M  per second
c reduced:                   33780        53.09 %  per conflict
c rephased:                     10      6362.20    interval
c restarts:                   3494        18.21    interval
c stabilizing:                   4        35.72 %  of conflicts
c subsumed:                     46         0.01 %  of all clauses
c strengthened:               3591         0.98 %  of all clauses
c ticks:                 517626192         4.61    propagation
c walked:                        2     31811.00    interval
c 
c seconds are measured in process time for solving
c 
c --- [ glue usage ] ---------------------------------------------------------
c 
c focused glue 2 used 17640 clauses 23.72% accumulated 73.00% tier1
c focused glue 3 used 6879 clauses 9.250% accumulated 82.25% tier2
c 
c stable glue 3 used 8870 clauses 9.400% accumulated 58.22% tier1
c stable glue 4 used 5397 clauses 5.719% accumulated 63.94%
c stable glue 5-7 used 11661 clauses 12.35% accumulated 76.30%
c stable glue 8 used 2530 clauses 2.681% accumulated 78.98%
c stable glue 9 used 2036 clauses 2.157% accumulated 81.14% tier2
c 
c 
c --- [ resources ] ----------------------------------------------------------
c 
c total process time since initialization:         5.01    seconds
c total real time since initialization:            5.01    seconds
c maximum resident set size of process:       256832.00    MB
c 
c --- [ shutting down ] ------------------------------------------------------
c 
c exit 0
